50, 11515
13, 109
113, 209
393, 492
684, 742
139, 100
113, 48
232, 257
758, 767
148, 183
741, 659
663, 601
137, 222
536, 556
448, 487
413, 332
997, 977
94, 177
21, 79
940, 1039
403, 342
199, 190
331, 391
365, 354
956, 1014
211, 223
217, 140
585, 504
548, 645
954, 877
839, 778
356, 323
204, 247
837, 908
989, 984
31, 66
736, 794
869, 824
652, 626
219, 242
797, 824
730, 637
194, 116
641, 568
220, 265
42, 99
337, 432
335, 389
397, 348
647, 700
837, 934
